experiments/forecast.lp
\-------------
\Objective: 
\-------------
Minimize
1.5555555555555554 L_8 + 1.5555555555555554 L_9 + 1.5555555555555554 L_10 + 1.5555555555555554 L_11 + 1.5555555555555554 L_12 + 1.5555555555555554 L_13 + 1.5555555555555554 L_14 + 1.5555555555555554 L_15 + 0.1 d_1 + 0.1 d_2 + 0.1 d_3 + 0.1 d_4 + 0.1 d_5 + 0.1 d_6 + 0.1 d_7

\-------------
\Constraints: 
\-------------
Subject To
a_0_1 + a_1_1 + a_2_1 + a_3_1 - d_1 = 0
b_1 >= 0
b_1 - d_1 <= 0
a_0_2 + a_1_2 + a_2_2 + a_3_2 - d_2 = 0
b_2 >= 0
b_2 - d_2 <= 0
d_2 - d_1 <= 0
a_0_3 + a_1_3 + a_2_3 + a_3_3 - d_3 = 0
b_3 >= 0
b_3 - d_3 <= 0
d_3 - d_1 <= 0
a_0_4 + a_1_4 + a_2_4 + a_3_4 - d_4 = 0
b_4 >= 0
b_4 - d_4 <= 0
d_4 - d_2 <= 0
a_0_5 + a_1_5 + a_2_5 + a_3_5 - d_5 = 0
b_5 >= 0
b_5 - d_5 <= 0
d_5 - d_2 <= 0
a_0_6 + a_1_6 + a_2_6 + a_3_6 - d_6 = 0
b_6 >= 0
b_6 - d_6 <= 0
d_6 - d_3 <= 0
a_0_7 + a_1_7 + a_2_7 + a_3_7 - d_7 = 0
b_7 >= 0
b_7 - d_7 <= 0
d_7 - d_3 <= 0
z_0_8 - l_8 <= 0
z_1_8 - l_8 <= 0
z_2_8 - l_8 <= 0
z_3_8 - l_8 <= 0
z_4_8 - l_8 <= 0
z_5_8 - l_8 <= 0
z_6_8 - l_8 <= 0
z_7_8 - l_8 <= 0
z_8_8 - l_8 <= 0
z_9_8 - l_8 <= 0
z_10_8 - l_8 <= 0
z_11_8 - l_8 <= 0
z_12_8 - l_8 <= 0
z_13_8 - l_8 <= 0
z_0_8 + z_1_8 + z_2_8 + z_3_8 + z_4_8 + z_5_8 + z_6_8 + z_7_8 + z_8_8 + z_9_8 + z_10_8 + z_11_8 + z_12_8 + z_13_8 - 1 l_8 >= 0
z_0_9 - l_9 <= 0
z_1_9 - l_9 <= 0
z_2_9 - l_9 <= 0
z_3_9 - l_9 <= 0
z_4_9 - l_9 <= 0
z_5_9 - l_9 <= 0
z_6_9 - l_9 <= 0
z_7_9 - l_9 <= 0
z_8_9 - l_9 <= 0
z_9_9 - l_9 <= 0
z_10_9 - l_9 <= 0
z_11_9 - l_9 <= 0
z_12_9 - l_9 <= 0
z_13_9 - l_9 <= 0
z_0_9 + z_1_9 + z_2_9 + z_3_9 + z_4_9 + z_5_9 + z_6_9 + z_7_9 + z_8_9 + z_9_9 + z_10_9 + z_11_9 + z_12_9 + z_13_9 - 1 l_9 >= 0
z_0_10 - l_10 <= 0
z_1_10 - l_10 <= 0
z_2_10 - l_10 <= 0
z_3_10 - l_10 <= 0
z_4_10 - l_10 <= 0
z_5_10 - l_10 <= 0
z_6_10 - l_10 <= 0
z_7_10 - l_10 <= 0
z_8_10 - l_10 <= 0
z_9_10 - l_10 <= 0
z_10_10 - l_10 <= 0
z_11_10 - l_10 <= 0
z_12_10 - l_10 <= 0
z_13_10 - l_10 <= 0
z_0_10 + z_1_10 + z_2_10 + z_3_10 + z_4_10 + z_5_10 + z_6_10 + z_7_10 + z_8_10 + z_9_10 + z_10_10 + z_11_10 + z_12_10 + z_13_10 - 1 l_10 >= 0
z_0_11 - l_11 <= 0
z_1_11 - l_11 <= 0
z_2_11 - l_11 <= 0
z_3_11 - l_11 <= 0
z_4_11 - l_11 <= 0
z_5_11 - l_11 <= 0
z_6_11 - l_11 <= 0
z_7_11 - l_11 <= 0
z_8_11 - l_11 <= 0
z_9_11 - l_11 <= 0
z_10_11 - l_11 <= 0
z_11_11 - l_11 <= 0
z_12_11 - l_11 <= 0
z_13_11 - l_11 <= 0
z_0_11 + z_1_11 + z_2_11 + z_3_11 + z_4_11 + z_5_11 + z_6_11 + z_7_11 + z_8_11 + z_9_11 + z_10_11 + z_11_11 + z_12_11 + z_13_11 - 1 l_11 >= 0
z_0_12 - l_12 <= 0
z_1_12 - l_12 <= 0
z_2_12 - l_12 <= 0
z_3_12 - l_12 <= 0
z_4_12 - l_12 <= 0
z_5_12 - l_12 <= 0
z_6_12 - l_12 <= 0
z_7_12 - l_12 <= 0
z_8_12 - l_12 <= 0
z_9_12 - l_12 <= 0
z_10_12 - l_12 <= 0
z_11_12 - l_12 <= 0
z_12_12 - l_12 <= 0
z_13_12 - l_12 <= 0
z_0_12 + z_1_12 + z_2_12 + z_3_12 + z_4_12 + z_5_12 + z_6_12 + z_7_12 + z_8_12 + z_9_12 + z_10_12 + z_11_12 + z_12_12 + z_13_12 - 1 l_12 >= 0
z_0_13 - l_13 <= 0
z_1_13 - l_13 <= 0
z_2_13 - l_13 <= 0
z_3_13 - l_13 <= 0
z_4_13 - l_13 <= 0
z_5_13 - l_13 <= 0
z_6_13 - l_13 <= 0
z_7_13 - l_13 <= 0
z_8_13 - l_13 <= 0
z_9_13 - l_13 <= 0
z_10_13 - l_13 <= 0
z_11_13 - l_13 <= 0
z_12_13 - l_13 <= 0
z_13_13 - l_13 <= 0
z_0_13 + z_1_13 + z_2_13 + z_3_13 + z_4_13 + z_5_13 + z_6_13 + z_7_13 + z_8_13 + z_9_13 + z_10_13 + z_11_13 + z_12_13 + z_13_13 - 1 l_13 >= 0
z_0_14 - l_14 <= 0
z_1_14 - l_14 <= 0
z_2_14 - l_14 <= 0
z_3_14 - l_14 <= 0
z_4_14 - l_14 <= 0
z_5_14 - l_14 <= 0
z_6_14 - l_14 <= 0
z_7_14 - l_14 <= 0
z_8_14 - l_14 <= 0
z_9_14 - l_14 <= 0
z_10_14 - l_14 <= 0
z_11_14 - l_14 <= 0
z_12_14 - l_14 <= 0
z_13_14 - l_14 <= 0
z_0_14 + z_1_14 + z_2_14 + z_3_14 + z_4_14 + z_5_14 + z_6_14 + z_7_14 + z_8_14 + z_9_14 + z_10_14 + z_11_14 + z_12_14 + z_13_14 - 1 l_14 >= 0
z_0_15 - l_15 <= 0
z_1_15 - l_15 <= 0
z_2_15 - l_15 <= 0
z_3_15 - l_15 <= 0
z_4_15 - l_15 <= 0
z_5_15 - l_15 <= 0
z_6_15 - l_15 <= 0
z_7_15 - l_15 <= 0
z_8_15 - l_15 <= 0
z_9_15 - l_15 <= 0
z_10_15 - l_15 <= 0
z_11_15 - l_15 <= 0
z_12_15 - l_15 <= 0
z_13_15 - l_15 <= 0
z_0_15 + z_1_15 + z_2_15 + z_3_15 + z_4_15 + z_5_15 + z_6_15 + z_7_15 + z_8_15 + z_9_15 + z_10_15 + z_11_15 + z_12_15 + z_13_15 - 1 l_15 >= 0
z_0_8 + z_0_9 + z_0_10 + z_0_11 + z_0_12 + z_0_13 + z_0_14 + z_0_15 = 1
z_1_8 + z_1_9 + z_1_10 + z_1_11 + z_1_12 + z_1_13 + z_1_14 + z_1_15 = 1
z_2_8 + z_2_9 + z_2_10 + z_2_11 + z_2_12 + z_2_13 + z_2_14 + z_2_15 = 1
z_3_8 + z_3_9 + z_3_10 + z_3_11 + z_3_12 + z_3_13 + z_3_14 + z_3_15 = 1
z_4_8 + z_4_9 + z_4_10 + z_4_11 + z_4_12 + z_4_13 + z_4_14 + z_4_15 = 1
z_5_8 + z_5_9 + z_5_10 + z_5_11 + z_5_12 + z_5_13 + z_5_14 + z_5_15 = 1
z_6_8 + z_6_9 + z_6_10 + z_6_11 + z_6_12 + z_6_13 + z_6_14 + z_6_15 = 1
z_7_8 + z_7_9 + z_7_10 + z_7_11 + z_7_12 + z_7_13 + z_7_14 + z_7_15 = 1
z_8_8 + z_8_9 + z_8_10 + z_8_11 + z_8_12 + z_8_13 + z_8_14 + z_8_15 = 1
z_9_8 + z_9_9 + z_9_10 + z_9_11 + z_9_12 + z_9_13 + z_9_14 + z_9_15 = 1
z_10_8 + z_10_9 + z_10_10 + z_10_11 + z_10_12 + z_10_13 + z_10_14 + z_10_15 = 1
z_11_8 + z_11_9 + z_11_10 + z_11_11 + z_11_12 + z_11_13 + z_11_14 + z_11_15 = 1
z_12_8 + z_12_9 + z_12_10 + z_12_11 + z_12_12 + z_12_13 + z_12_14 + z_12_15 = 1
z_13_8 + z_13_9 + z_13_10 + z_13_11 + z_13_12 + z_13_13 + z_13_14 + z_13_15 = 1
0.0 a_0_4 + 0.0 a_1_4 + 0.0 a_2_4 + 0.0 a_3_4 - b_4 + 2.0 z_0_8 <= 1.5
0.0 a_0_4 + 0.0 a_1_4 + 0.0 a_2_4 + 1.0 a_3_4 - b_4 + 2.0 z_1_8 <= 1.5
0.5 a_0_4 + 0.0 a_1_4 + 0.0 a_2_4 + 0.0 a_3_4 - b_4 + 2.0 z_2_8 <= 1.5
1.0 a_0_4 + 0.5 a_1_4 + 0.0 a_2_4 + 0.0 a_3_4 - b_4 + 2.0 z_3_8 <= 1.5
1.0 a_0_4 + 1.0 a_1_4 + 1.0 a_2_4 + 0.0 a_3_4 - b_4 + 2.0 z_4_8 <= 1.5
1.0 a_0_4 + 1.0 a_1_4 + 1.0 a_2_4 + 1.0 a_3_4 - b_4 + 2.0 z_5_8 <= 1.5
0.5 a_0_4 + 1.0 a_1_4 + 1.0 a_2_4 + 1.0 a_3_4 - b_4 + 2.0 z_6_8 <= 1.5
0.0 a_0_4 + 0.5 a_1_4 + 0.0 a_2_4 + 0.0 a_3_4 - b_4 + 2.0 z_7_8 <= 1.5
0.0 a_0_4 + 1.0 a_1_4 + 1.0 a_2_4 + 0.0 a_3_4 - b_4 + 2.0 z_8_8 <= 1.5
1.0 a_0_4 + 0.5 a_1_4 + 1.0 a_2_4 + 0.0 a_3_4 - b_4 + 2.0 z_9_8 <= 1.5
0.0 a_0_4 + 0.5 a_1_4 + 1.0 a_2_4 + 1.0 a_3_4 - b_4 + 2.0 z_10_8 <= 1.5
0.5 a_0_4 + 0.5 a_1_4 + 0.0 a_2_4 + 1.0 a_3_4 - b_4 + 2.0 z_11_8 <= 1.5
0.5 a_0_4 + 0.0 a_1_4 + 1.0 a_2_4 + 0.0 a_3_4 - b_4 + 2.0 z_12_8 <= 1.5
1.0 a_0_4 + 0.5 a_1_4 + 0.0 a_2_4 + 1.0 a_3_4 - b_4 + 2.0 z_13_8 <= 1.5
0.0 a_0_2 + 0.0 a_1_2 + 0.0 a_2_2 + 0.0 a_3_2 - b_2 + 2.0 z_0_8 <= 1.5
0.0 a_0_2 + 0.0 a_1_2 + 0.0 a_2_2 + 1.0 a_3_2 - b_2 + 2.0 z_1_8 <= 1.5
0.5 a_0_2 + 0.0 a_1_2 + 0.0 a_2_2 + 0.0 a_3_2 - b_2 + 2.0 z_2_8 <= 1.5
1.0 a_0_2 + 0.5 a_1_2 + 0.0 a_2_2 + 0.0 a_3_2 - b_2 + 2.0 z_3_8 <= 1.5
1.0 a_0_2 + 1.0 a_1_2 + 1.0 a_2_2 + 0.0 a_3_2 - b_2 + 2.0 z_4_8 <= 1.5
1.0 a_0_2 + 1.0 a_1_2 + 1.0 a_2_2 + 1.0 a_3_2 - b_2 + 2.0 z_5_8 <= 1.5
0.5 a_0_2 + 1.0 a_1_2 + 1.0 a_2_2 + 1.0 a_3_2 - b_2 + 2.0 z_6_8 <= 1.5
0.0 a_0_2 + 0.5 a_1_2 + 0.0 a_2_2 + 0.0 a_3_2 - b_2 + 2.0 z_7_8 <= 1.5
0.0 a_0_2 + 1.0 a_1_2 + 1.0 a_2_2 + 0.0 a_3_2 - b_2 + 2.0 z_8_8 <= 1.5
1.0 a_0_2 + 0.5 a_1_2 + 1.0 a_2_2 + 0.0 a_3_2 - b_2 + 2.0 z_9_8 <= 1.5
0.0 a_0_2 + 0.5 a_1_2 + 1.0 a_2_2 + 1.0 a_3_2 - b_2 + 2.0 z_10_8 <= 1.5
0.5 a_0_2 + 0.5 a_1_2 + 0.0 a_2_2 + 1.0 a_3_2 - b_2 + 2.0 z_11_8 <= 1.5
0.5 a_0_2 + 0.0 a_1_2 + 1.0 a_2_2 + 0.0 a_3_2 - b_2 + 2.0 z_12_8 <= 1.5
1.0 a_0_2 + 0.5 a_1_2 + 0.0 a_2_2 + 1.0 a_3_2 - b_2 + 2.0 z_13_8 <= 1.5
0.0 a_0_1 + 0.0 a_1_1 + 0.0 a_2_1 + 0.0 a_3_1 - b_1 + 2.0 z_0_8 <= 1.5
0.0 a_0_1 + 0.0 a_1_1 + 0.0 a_2_1 + 1.0 a_3_1 - b_1 + 2.0 z_1_8 <= 1.5
0.5 a_0_1 + 0.0 a_1_1 + 0.0 a_2_1 + 0.0 a_3_1 - b_1 + 2.0 z_2_8 <= 1.5
1.0 a_0_1 + 0.5 a_1_1 + 0.0 a_2_1 + 0.0 a_3_1 - b_1 + 2.0 z_3_8 <= 1.5
1.0 a_0_1 + 1.0 a_1_1 + 1.0 a_2_1 + 0.0 a_3_1 - b_1 + 2.0 z_4_8 <= 1.5
1.0 a_0_1 + 1.0 a_1_1 + 1.0 a_2_1 + 1.0 a_3_1 - b_1 + 2.0 z_5_8 <= 1.5
0.5 a_0_1 + 1.0 a_1_1 + 1.0 a_2_1 + 1.0 a_3_1 - b_1 + 2.0 z_6_8 <= 1.5
0.0 a_0_1 + 0.5 a_1_1 + 0.0 a_2_1 + 0.0 a_3_1 - b_1 + 2.0 z_7_8 <= 1.5
0.0 a_0_1 + 1.0 a_1_1 + 1.0 a_2_1 + 0.0 a_3_1 - b_1 + 2.0 z_8_8 <= 1.5
1.0 a_0_1 + 0.5 a_1_1 + 1.0 a_2_1 + 0.0 a_3_1 - b_1 + 2.0 z_9_8 <= 1.5
0.0 a_0_1 + 0.5 a_1_1 + 1.0 a_2_1 + 1.0 a_3_1 - b_1 + 2.0 z_10_8 <= 1.5
0.5 a_0_1 + 0.5 a_1_1 + 0.0 a_2_1 + 1.0 a_3_1 - b_1 + 2.0 z_11_8 <= 1.5
0.5 a_0_1 + 0.0 a_1_1 + 1.0 a_2_1 + 0.0 a_3_1 - b_1 + 2.0 z_12_8 <= 1.5
1.0 a_0_1 + 0.5 a_1_1 + 0.0 a_2_1 + 1.0 a_3_1 - b_1 + 2.0 z_13_8 <= 1.5
0.0 a_0_2 + 0.0 a_1_2 + 0.0 a_2_2 + 0.0 a_3_2 - b_2 + 2.0 z_0_9 <= 1.5
0.0 a_0_2 + 0.0 a_1_2 + 0.0 a_2_2 + 1.0 a_3_2 - b_2 + 2.0 z_1_9 <= 1.5
0.5 a_0_2 + 0.0 a_1_2 + 0.0 a_2_2 + 0.0 a_3_2 - b_2 + 2.0 z_2_9 <= 1.5
1.0 a_0_2 + 0.5 a_1_2 + 0.0 a_2_2 + 0.0 a_3_2 - b_2 + 2.0 z_3_9 <= 1.5
1.0 a_0_2 + 1.0 a_1_2 + 1.0 a_2_2 + 0.0 a_3_2 - b_2 + 2.0 z_4_9 <= 1.5
1.0 a_0_2 + 1.0 a_1_2 + 1.0 a_2_2 + 1.0 a_3_2 - b_2 + 2.0 z_5_9 <= 1.5
0.5 a_0_2 + 1.0 a_1_2 + 1.0 a_2_2 + 1.0 a_3_2 - b_2 + 2.0 z_6_9 <= 1.5
0.0 a_0_2 + 0.5 a_1_2 + 0.0 a_2_2 + 0.0 a_3_2 - b_2 + 2.0 z_7_9 <= 1.5
0.0 a_0_2 + 1.0 a_1_2 + 1.0 a_2_2 + 0.0 a_3_2 - b_2 + 2.0 z_8_9 <= 1.5
1.0 a_0_2 + 0.5 a_1_2 + 1.0 a_2_2 + 0.0 a_3_2 - b_2 + 2.0 z_9_9 <= 1.5
0.0 a_0_2 + 0.5 a_1_2 + 1.0 a_2_2 + 1.0 a_3_2 - b_2 + 2.0 z_10_9 <= 1.5
0.5 a_0_2 + 0.5 a_1_2 + 0.0 a_2_2 + 1.0 a_3_2 - b_2 + 2.0 z_11_9 <= 1.5
0.5 a_0_2 + 0.0 a_1_2 + 1.0 a_2_2 + 0.0 a_3_2 - b_2 + 2.0 z_12_9 <= 1.5
1.0 a_0_2 + 0.5 a_1_2 + 0.0 a_2_2 + 1.0 a_3_2 - b_2 + 2.0 z_13_9 <= 1.5
0.0 a_0_1 + 0.0 a_1_1 + 0.0 a_2_1 + 0.0 a_3_1 - b_1 + 2.0 z_0_9 <= 1.5
0.0 a_0_1 + 0.0 a_1_1 + 0.0 a_2_1 + 1.0 a_3_1 - b_1 + 2.0 z_1_9 <= 1.5
0.5 a_0_1 + 0.0 a_1_1 + 0.0 a_2_1 + 0.0 a_3_1 - b_1 + 2.0 z_2_9 <= 1.5
1.0 a_0_1 + 0.5 a_1_1 + 0.0 a_2_1 + 0.0 a_3_1 - b_1 + 2.0 z_3_9 <= 1.5
1.0 a_0_1 + 1.0 a_1_1 + 1.0 a_2_1 + 0.0 a_3_1 - b_1 + 2.0 z_4_9 <= 1.5
1.0 a_0_1 + 1.0 a_1_1 + 1.0 a_2_1 + 1.0 a_3_1 - b_1 + 2.0 z_5_9 <= 1.5
0.5 a_0_1 + 1.0 a_1_1 + 1.0 a_2_1 + 1.0 a_3_1 - b_1 + 2.0 z_6_9 <= 1.5
0.0 a_0_1 + 0.5 a_1_1 + 0.0 a_2_1 + 0.0 a_3_1 - b_1 + 2.0 z_7_9 <= 1.5
0.0 a_0_1 + 1.0 a_1_1 + 1.0 a_2_1 + 0.0 a_3_1 - b_1 + 2.0 z_8_9 <= 1.5
1.0 a_0_1 + 0.5 a_1_1 + 1.0 a_2_1 + 0.0 a_3_1 - b_1 + 2.0 z_9_9 <= 1.5
0.0 a_0_1 + 0.5 a_1_1 + 1.0 a_2_1 + 1.0 a_3_1 - b_1 + 2.0 z_10_9 <= 1.5
0.5 a_0_1 + 0.5 a_1_1 + 0.0 a_2_1 + 1.0 a_3_1 - b_1 + 2.0 z_11_9 <= 1.5
0.5 a_0_1 + 0.0 a_1_1 + 1.0 a_2_1 + 0.0 a_3_1 - b_1 + 2.0 z_12_9 <= 1.5
1.0 a_0_1 + 0.5 a_1_1 + 0.0 a_2_1 + 1.0 a_3_1 - b_1 + 2.0 z_13_9 <= 1.5
0.0 a_0_4 + 0.0 a_1_4 + 0.0 a_2_4 + 0.0 a_3_4 - b_4 - z_0_9 >= -1
0.0 a_0_4 + 0.0 a_1_4 + 0.0 a_2_4 + 1.0 a_3_4 - b_4 - z_1_9 >= -1
0.5 a_0_4 + 0.0 a_1_4 + 0.0 a_2_4 + 0.0 a_3_4 - b_4 - z_2_9 >= -1
1.0 a_0_4 + 0.5 a_1_4 + 0.0 a_2_4 + 0.0 a_3_4 - b_4 - z_3_9 >= -1
1.0 a_0_4 + 1.0 a_1_4 + 1.0 a_2_4 + 0.0 a_3_4 - b_4 - z_4_9 >= -1
1.0 a_0_4 + 1.0 a_1_4 + 1.0 a_2_4 + 1.0 a_3_4 - b_4 - z_5_9 >= -1
0.5 a_0_4 + 1.0 a_1_4 + 1.0 a_2_4 + 1.0 a_3_4 - b_4 - z_6_9 >= -1
0.0 a_0_4 + 0.5 a_1_4 + 0.0 a_2_4 + 0.0 a_3_4 - b_4 - z_7_9 >= -1
0.0 a_0_4 + 1.0 a_1_4 + 1.0 a_2_4 + 0.0 a_3_4 - b_4 - z_8_9 >= -1
1.0 a_0_4 + 0.5 a_1_4 + 1.0 a_2_4 + 0.0 a_3_4 - b_4 - z_9_9 >= -1
0.0 a_0_4 + 0.5 a_1_4 + 1.0 a_2_4 + 1.0 a_3_4 - b_4 - z_10_9 >= -1
0.5 a_0_4 + 0.5 a_1_4 + 0.0 a_2_4 + 1.0 a_3_4 - b_4 - z_11_9 >= -1
0.5 a_0_4 + 0.0 a_1_4 + 1.0 a_2_4 + 0.0 a_3_4 - b_4 - z_12_9 >= -1
1.0 a_0_4 + 0.5 a_1_4 + 0.0 a_2_4 + 1.0 a_3_4 - b_4 - z_13_9 >= -1
0.0 a_0_5 + 0.0 a_1_5 + 0.0 a_2_5 + 0.0 a_3_5 - b_5 + 2.0 z_0_10 <= 1.5
0.0 a_0_5 + 0.0 a_1_5 + 0.0 a_2_5 + 1.0 a_3_5 - b_5 + 2.0 z_1_10 <= 1.5
0.5 a_0_5 + 0.0 a_1_5 + 0.0 a_2_5 + 0.0 a_3_5 - b_5 + 2.0 z_2_10 <= 1.5
1.0 a_0_5 + 0.5 a_1_5 + 0.0 a_2_5 + 0.0 a_3_5 - b_5 + 2.0 z_3_10 <= 1.5
1.0 a_0_5 + 1.0 a_1_5 + 1.0 a_2_5 + 0.0 a_3_5 - b_5 + 2.0 z_4_10 <= 1.5
1.0 a_0_5 + 1.0 a_1_5 + 1.0 a_2_5 + 1.0 a_3_5 - b_5 + 2.0 z_5_10 <= 1.5
0.5 a_0_5 + 1.0 a_1_5 + 1.0 a_2_5 + 1.0 a_3_5 - b_5 + 2.0 z_6_10 <= 1.5
0.0 a_0_5 + 0.5 a_1_5 + 0.0 a_2_5 + 0.0 a_3_5 - b_5 + 2.0 z_7_10 <= 1.5
0.0 a_0_5 + 1.0 a_1_5 + 1.0 a_2_5 + 0.0 a_3_5 - b_5 + 2.0 z_8_10 <= 1.5
1.0 a_0_5 + 0.5 a_1_5 + 1.0 a_2_5 + 0.0 a_3_5 - b_5 + 2.0 z_9_10 <= 1.5
0.0 a_0_5 + 0.5 a_1_5 + 1.0 a_2_5 + 1.0 a_3_5 - b_5 + 2.0 z_10_10 <= 1.5
0.5 a_0_5 + 0.5 a_1_5 + 0.0 a_2_5 + 1.0 a_3_5 - b_5 + 2.0 z_11_10 <= 1.5
0.5 a_0_5 + 0.0 a_1_5 + 1.0 a_2_5 + 0.0 a_3_5 - b_5 + 2.0 z_12_10 <= 1.5
1.0 a_0_5 + 0.5 a_1_5 + 0.0 a_2_5 + 1.0 a_3_5 - b_5 + 2.0 z_13_10 <= 1.5
0.0 a_0_1 + 0.0 a_1_1 + 0.0 a_2_1 + 0.0 a_3_1 - b_1 + 2.0 z_0_10 <= 1.5
0.0 a_0_1 + 0.0 a_1_1 + 0.0 a_2_1 + 1.0 a_3_1 - b_1 + 2.0 z_1_10 <= 1.5
0.5 a_0_1 + 0.0 a_1_1 + 0.0 a_2_1 + 0.0 a_3_1 - b_1 + 2.0 z_2_10 <= 1.5
1.0 a_0_1 + 0.5 a_1_1 + 0.0 a_2_1 + 0.0 a_3_1 - b_1 + 2.0 z_3_10 <= 1.5
1.0 a_0_1 + 1.0 a_1_1 + 1.0 a_2_1 + 0.0 a_3_1 - b_1 + 2.0 z_4_10 <= 1.5
1.0 a_0_1 + 1.0 a_1_1 + 1.0 a_2_1 + 1.0 a_3_1 - b_1 + 2.0 z_5_10 <= 1.5
0.5 a_0_1 + 1.0 a_1_1 + 1.0 a_2_1 + 1.0 a_3_1 - b_1 + 2.0 z_6_10 <= 1.5
0.0 a_0_1 + 0.5 a_1_1 + 0.0 a_2_1 + 0.0 a_3_1 - b_1 + 2.0 z_7_10 <= 1.5
0.0 a_0_1 + 1.0 a_1_1 + 1.0 a_2_1 + 0.0 a_3_1 - b_1 + 2.0 z_8_10 <= 1.5
1.0 a_0_1 + 0.5 a_1_1 + 1.0 a_2_1 + 0.0 a_3_1 - b_1 + 2.0 z_9_10 <= 1.5
0.0 a_0_1 + 0.5 a_1_1 + 1.0 a_2_1 + 1.0 a_3_1 - b_1 + 2.0 z_10_10 <= 1.5
0.5 a_0_1 + 0.5 a_1_1 + 0.0 a_2_1 + 1.0 a_3_1 - b_1 + 2.0 z_11_10 <= 1.5
0.5 a_0_1 + 0.0 a_1_1 + 1.0 a_2_1 + 0.0 a_3_1 - b_1 + 2.0 z_12_10 <= 1.5
1.0 a_0_1 + 0.5 a_1_1 + 0.0 a_2_1 + 1.0 a_3_1 - b_1 + 2.0 z_13_10 <= 1.5
0.0 a_0_2 + 0.0 a_1_2 + 0.0 a_2_2 + 0.0 a_3_2 - b_2 - z_0_10 >= -1
0.0 a_0_2 + 0.0 a_1_2 + 0.0 a_2_2 + 1.0 a_3_2 - b_2 - z_1_10 >= -1
0.5 a_0_2 + 0.0 a_1_2 + 0.0 a_2_2 + 0.0 a_3_2 - b_2 - z_2_10 >= -1
1.0 a_0_2 + 0.5 a_1_2 + 0.0 a_2_2 + 0.0 a_3_2 - b_2 - z_3_10 >= -1
1.0 a_0_2 + 1.0 a_1_2 + 1.0 a_2_2 + 0.0 a_3_2 - b_2 - z_4_10 >= -1
1.0 a_0_2 + 1.0 a_1_2 + 1.0 a_2_2 + 1.0 a_3_2 - b_2 - z_5_10 >= -1
0.5 a_0_2 + 1.0 a_1_2 + 1.0 a_2_2 + 1.0 a_3_2 - b_2 - z_6_10 >= -1
0.0 a_0_2 + 0.5 a_1_2 + 0.0 a_2_2 + 0.0 a_3_2 - b_2 - z_7_10 >= -1
0.0 a_0_2 + 1.0 a_1_2 + 1.0 a_2_2 + 0.0 a_3_2 - b_2 - z_8_10 >= -1
1.0 a_0_2 + 0.5 a_1_2 + 1.0 a_2_2 + 0.0 a_3_2 - b_2 - z_9_10 >= -1
0.0 a_0_2 + 0.5 a_1_2 + 1.0 a_2_2 + 1.0 a_3_2 - b_2 - z_10_10 >= -1
0.5 a_0_2 + 0.5 a_1_2 + 0.0 a_2_2 + 1.0 a_3_2 - b_2 - z_11_10 >= -1
0.5 a_0_2 + 0.0 a_1_2 + 1.0 a_2_2 + 0.0 a_3_2 - b_2 - z_12_10 >= -1
1.0 a_0_2 + 0.5 a_1_2 + 0.0 a_2_2 + 1.0 a_3_2 - b_2 - z_13_10 >= -1
0.0 a_0_1 + 0.0 a_1_1 + 0.0 a_2_1 + 0.0 a_3_1 - b_1 + 2.0 z_0_11 <= 1.5
0.0 a_0_1 + 0.0 a_1_1 + 0.0 a_2_1 + 1.0 a_3_1 - b_1 + 2.0 z_1_11 <= 1.5
0.5 a_0_1 + 0.0 a_1_1 + 0.0 a_2_1 + 0.0 a_3_1 - b_1 + 2.0 z_2_11 <= 1.5
1.0 a_0_1 + 0.5 a_1_1 + 0.0 a_2_1 + 0.0 a_3_1 - b_1 + 2.0 z_3_11 <= 1.5
1.0 a_0_1 + 1.0 a_1_1 + 1.0 a_2_1 + 0.0 a_3_1 - b_1 + 2.0 z_4_11 <= 1.5
1.0 a_0_1 + 1.0 a_1_1 + 1.0 a_2_1 + 1.0 a_3_1 - b_1 + 2.0 z_5_11 <= 1.5
0.5 a_0_1 + 1.0 a_1_1 + 1.0 a_2_1 + 1.0 a_3_1 - b_1 + 2.0 z_6_11 <= 1.5
0.0 a_0_1 + 0.5 a_1_1 + 0.0 a_2_1 + 0.0 a_3_1 - b_1 + 2.0 z_7_11 <= 1.5
0.0 a_0_1 + 1.0 a_1_1 + 1.0 a_2_1 + 0.0 a_3_1 - b_1 + 2.0 z_8_11 <= 1.5
1.0 a_0_1 + 0.5 a_1_1 + 1.0 a_2_1 + 0.0 a_3_1 - b_1 + 2.0 z_9_11 <= 1.5
0.0 a_0_1 + 0.5 a_1_1 + 1.0 a_2_1 + 1.0 a_3_1 - b_1 + 2.0 z_10_11 <= 1.5
0.5 a_0_1 + 0.5 a_1_1 + 0.0 a_2_1 + 1.0 a_3_1 - b_1 + 2.0 z_11_11 <= 1.5
0.5 a_0_1 + 0.0 a_1_1 + 1.0 a_2_1 + 0.0 a_3_1 - b_1 + 2.0 z_12_11 <= 1.5
1.0 a_0_1 + 0.5 a_1_1 + 0.0 a_2_1 + 1.0 a_3_1 - b_1 + 2.0 z_13_11 <= 1.5
0.0 a_0_5 + 0.0 a_1_5 + 0.0 a_2_5 + 0.0 a_3_5 - b_5 - z_0_11 >= -1
0.0 a_0_5 + 0.0 a_1_5 + 0.0 a_2_5 + 1.0 a_3_5 - b_5 - z_1_11 >= -1
0.5 a_0_5 + 0.0 a_1_5 + 0.0 a_2_5 + 0.0 a_3_5 - b_5 - z_2_11 >= -1
1.0 a_0_5 + 0.5 a_1_5 + 0.0 a_2_5 + 0.0 a_3_5 - b_5 - z_3_11 >= -1
1.0 a_0_5 + 1.0 a_1_5 + 1.0 a_2_5 + 0.0 a_3_5 - b_5 - z_4_11 >= -1
1.0 a_0_5 + 1.0 a_1_5 + 1.0 a_2_5 + 1.0 a_3_5 - b_5 - z_5_11 >= -1
0.5 a_0_5 + 1.0 a_1_5 + 1.0 a_2_5 + 1.0 a_3_5 - b_5 - z_6_11 >= -1
0.0 a_0_5 + 0.5 a_1_5 + 0.0 a_2_5 + 0.0 a_3_5 - b_5 - z_7_11 >= -1
0.0 a_0_5 + 1.0 a_1_5 + 1.0 a_2_5 + 0.0 a_3_5 - b_5 - z_8_11 >= -1
1.0 a_0_5 + 0.5 a_1_5 + 1.0 a_2_5 + 0.0 a_3_5 - b_5 - z_9_11 >= -1
0.0 a_0_5 + 0.5 a_1_5 + 1.0 a_2_5 + 1.0 a_3_5 - b_5 - z_10_11 >= -1
0.5 a_0_5 + 0.5 a_1_5 + 0.0 a_2_5 + 1.0 a_3_5 - b_5 - z_11_11 >= -1
0.5 a_0_5 + 0.0 a_1_5 + 1.0 a_2_5 + 0.0 a_3_5 - b_5 - z_12_11 >= -1
1.0 a_0_5 + 0.5 a_1_5 + 0.0 a_2_5 + 1.0 a_3_5 - b_5 - z_13_11 >= -1
0.0 a_0_2 + 0.0 a_1_2 + 0.0 a_2_2 + 0.0 a_3_2 - b_2 - z_0_11 >= -1
0.0 a_0_2 + 0.0 a_1_2 + 0.0 a_2_2 + 1.0 a_3_2 - b_2 - z_1_11 >= -1
0.5 a_0_2 + 0.0 a_1_2 + 0.0 a_2_2 + 0.0 a_3_2 - b_2 - z_2_11 >= -1
1.0 a_0_2 + 0.5 a_1_2 + 0.0 a_2_2 + 0.0 a_3_2 - b_2 - z_3_11 >= -1
1.0 a_0_2 + 1.0 a_1_2 + 1.0 a_2_2 + 0.0 a_3_2 - b_2 - z_4_11 >= -1
1.0 a_0_2 + 1.0 a_1_2 + 1.0 a_2_2 + 1.0 a_3_2 - b_2 - z_5_11 >= -1
0.5 a_0_2 + 1.0 a_1_2 + 1.0 a_2_2 + 1.0 a_3_2 - b_2 - z_6_11 >= -1
0.0 a_0_2 + 0.5 a_1_2 + 0.0 a_2_2 + 0.0 a_3_2 - b_2 - z_7_11 >= -1
0.0 a_0_2 + 1.0 a_1_2 + 1.0 a_2_2 + 0.0 a_3_2 - b_2 - z_8_11 >= -1
1.0 a_0_2 + 0.5 a_1_2 + 1.0 a_2_2 + 0.0 a_3_2 - b_2 - z_9_11 >= -1
0.0 a_0_2 + 0.5 a_1_2 + 1.0 a_2_2 + 1.0 a_3_2 - b_2 - z_10_11 >= -1
0.5 a_0_2 + 0.5 a_1_2 + 0.0 a_2_2 + 1.0 a_3_2 - b_2 - z_11_11 >= -1
0.5 a_0_2 + 0.0 a_1_2 + 1.0 a_2_2 + 0.0 a_3_2 - b_2 - z_12_11 >= -1
1.0 a_0_2 + 0.5 a_1_2 + 0.0 a_2_2 + 1.0 a_3_2 - b_2 - z_13_11 >= -1
0.0 a_0_6 + 0.0 a_1_6 + 0.0 a_2_6 + 0.0 a_3_6 - b_6 + 2.0 z_0_12 <= 1.5
0.0 a_0_6 + 0.0 a_1_6 + 0.0 a_2_6 + 1.0 a_3_6 - b_6 + 2.0 z_1_12 <= 1.5
0.5 a_0_6 + 0.0 a_1_6 + 0.0 a_2_6 + 0.0 a_3_6 - b_6 + 2.0 z_2_12 <= 1.5
1.0 a_0_6 + 0.5 a_1_6 + 0.0 a_2_6 + 0.0 a_3_6 - b_6 + 2.0 z_3_12 <= 1.5
1.0 a_0_6 + 1.0 a_1_6 + 1.0 a_2_6 + 0.0 a_3_6 - b_6 + 2.0 z_4_12 <= 1.5
1.0 a_0_6 + 1.0 a_1_6 + 1.0 a_2_6 + 1.0 a_3_6 - b_6 + 2.0 z_5_12 <= 1.5
0.5 a_0_6 + 1.0 a_1_6 + 1.0 a_2_6 + 1.0 a_3_6 - b_6 + 2.0 z_6_12 <= 1.5
0.0 a_0_6 + 0.5 a_1_6 + 0.0 a_2_6 + 0.0 a_3_6 - b_6 + 2.0 z_7_12 <= 1.5
0.0 a_0_6 + 1.0 a_1_6 + 1.0 a_2_6 + 0.0 a_3_6 - b_6 + 2.0 z_8_12 <= 1.5
1.0 a_0_6 + 0.5 a_1_6 + 1.0 a_2_6 + 0.0 a_3_6 - b_6 + 2.0 z_9_12 <= 1.5
0.0 a_0_6 + 0.5 a_1_6 + 1.0 a_2_6 + 1.0 a_3_6 - b_6 + 2.0 z_10_12 <= 1.5
0.5 a_0_6 + 0.5 a_1_6 + 0.0 a_2_6 + 1.0 a_3_6 - b_6 + 2.0 z_11_12 <= 1.5
0.5 a_0_6 + 0.0 a_1_6 + 1.0 a_2_6 + 0.0 a_3_6 - b_6 + 2.0 z_12_12 <= 1.5
1.0 a_0_6 + 0.5 a_1_6 + 0.0 a_2_6 + 1.0 a_3_6 - b_6 + 2.0 z_13_12 <= 1.5
0.0 a_0_3 + 0.0 a_1_3 + 0.0 a_2_3 + 0.0 a_3_3 - b_3 + 2.0 z_0_12 <= 1.5
0.0 a_0_3 + 0.0 a_1_3 + 0.0 a_2_3 + 1.0 a_3_3 - b_3 + 2.0 z_1_12 <= 1.5
0.5 a_0_3 + 0.0 a_1_3 + 0.0 a_2_3 + 0.0 a_3_3 - b_3 + 2.0 z_2_12 <= 1.5
1.0 a_0_3 + 0.5 a_1_3 + 0.0 a_2_3 + 0.0 a_3_3 - b_3 + 2.0 z_3_12 <= 1.5
1.0 a_0_3 + 1.0 a_1_3 + 1.0 a_2_3 + 0.0 a_3_3 - b_3 + 2.0 z_4_12 <= 1.5
1.0 a_0_3 + 1.0 a_1_3 + 1.0 a_2_3 + 1.0 a_3_3 - b_3 + 2.0 z_5_12 <= 1.5
0.5 a_0_3 + 1.0 a_1_3 + 1.0 a_2_3 + 1.0 a_3_3 - b_3 + 2.0 z_6_12 <= 1.5
0.0 a_0_3 + 0.5 a_1_3 + 0.0 a_2_3 + 0.0 a_3_3 - b_3 + 2.0 z_7_12 <= 1.5
0.0 a_0_3 + 1.0 a_1_3 + 1.0 a_2_3 + 0.0 a_3_3 - b_3 + 2.0 z_8_12 <= 1.5
1.0 a_0_3 + 0.5 a_1_3 + 1.0 a_2_3 + 0.0 a_3_3 - b_3 + 2.0 z_9_12 <= 1.5
0.0 a_0_3 + 0.5 a_1_3 + 1.0 a_2_3 + 1.0 a_3_3 - b_3 + 2.0 z_10_12 <= 1.5
0.5 a_0_3 + 0.5 a_1_3 + 0.0 a_2_3 + 1.0 a_3_3 - b_3 + 2.0 z_11_12 <= 1.5
0.5 a_0_3 + 0.0 a_1_3 + 1.0 a_2_3 + 0.0 a_3_3 - b_3 + 2.0 z_12_12 <= 1.5
1.0 a_0_3 + 0.5 a_1_3 + 0.0 a_2_3 + 1.0 a_3_3 - b_3 + 2.0 z_13_12 <= 1.5
0.0 a_0_1 + 0.0 a_1_1 + 0.0 a_2_1 + 0.0 a_3_1 - b_1 - z_0_12 >= -1
0.0 a_0_1 + 0.0 a_1_1 + 0.0 a_2_1 + 1.0 a_3_1 - b_1 - z_1_12 >= -1
0.5 a_0_1 + 0.0 a_1_1 + 0.0 a_2_1 + 0.0 a_3_1 - b_1 - z_2_12 >= -1
1.0 a_0_1 + 0.5 a_1_1 + 0.0 a_2_1 + 0.0 a_3_1 - b_1 - z_3_12 >= -1
1.0 a_0_1 + 1.0 a_1_1 + 1.0 a_2_1 + 0.0 a_3_1 - b_1 - z_4_12 >= -1
1.0 a_0_1 + 1.0 a_1_1 + 1.0 a_2_1 + 1.0 a_3_1 - b_1 - z_5_12 >= -1
0.5 a_0_1 + 1.0 a_1_1 + 1.0 a_2_1 + 1.0 a_3_1 - b_1 - z_6_12 >= -1
0.0 a_0_1 + 0.5 a_1_1 + 0.0 a_2_1 + 0.0 a_3_1 - b_1 - z_7_12 >= -1
0.0 a_0_1 + 1.0 a_1_1 + 1.0 a_2_1 + 0.0 a_3_1 - b_1 - z_8_12 >= -1
1.0 a_0_1 + 0.5 a_1_1 + 1.0 a_2_1 + 0.0 a_3_1 - b_1 - z_9_12 >= -1
0.0 a_0_1 + 0.5 a_1_1 + 1.0 a_2_1 + 1.0 a_3_1 - b_1 - z_10_12 >= -1
0.5 a_0_1 + 0.5 a_1_1 + 0.0 a_2_1 + 1.0 a_3_1 - b_1 - z_11_12 >= -1
0.5 a_0_1 + 0.0 a_1_1 + 1.0 a_2_1 + 0.0 a_3_1 - b_1 - z_12_12 >= -1
1.0 a_0_1 + 0.5 a_1_1 + 0.0 a_2_1 + 1.0 a_3_1 - b_1 - z_13_12 >= -1
0.0 a_0_3 + 0.0 a_1_3 + 0.0 a_2_3 + 0.0 a_3_3 - b_3 + 2.0 z_0_13 <= 1.5
0.0 a_0_3 + 0.0 a_1_3 + 0.0 a_2_3 + 1.0 a_3_3 - b_3 + 2.0 z_1_13 <= 1.5
0.5 a_0_3 + 0.0 a_1_3 + 0.0 a_2_3 + 0.0 a_3_3 - b_3 + 2.0 z_2_13 <= 1.5
1.0 a_0_3 + 0.5 a_1_3 + 0.0 a_2_3 + 0.0 a_3_3 - b_3 + 2.0 z_3_13 <= 1.5
1.0 a_0_3 + 1.0 a_1_3 + 1.0 a_2_3 + 0.0 a_3_3 - b_3 + 2.0 z_4_13 <= 1.5
1.0 a_0_3 + 1.0 a_1_3 + 1.0 a_2_3 + 1.0 a_3_3 - b_3 + 2.0 z_5_13 <= 1.5
0.5 a_0_3 + 1.0 a_1_3 + 1.0 a_2_3 + 1.0 a_3_3 - b_3 + 2.0 z_6_13 <= 1.5
0.0 a_0_3 + 0.5 a_1_3 + 0.0 a_2_3 + 0.0 a_3_3 - b_3 + 2.0 z_7_13 <= 1.5
0.0 a_0_3 + 1.0 a_1_3 + 1.0 a_2_3 + 0.0 a_3_3 - b_3 + 2.0 z_8_13 <= 1.5
1.0 a_0_3 + 0.5 a_1_3 + 1.0 a_2_3 + 0.0 a_3_3 - b_3 + 2.0 z_9_13 <= 1.5
0.0 a_0_3 + 0.5 a_1_3 + 1.0 a_2_3 + 1.0 a_3_3 - b_3 + 2.0 z_10_13 <= 1.5
0.5 a_0_3 + 0.5 a_1_3 + 0.0 a_2_3 + 1.0 a_3_3 - b_3 + 2.0 z_11_13 <= 1.5
0.5 a_0_3 + 0.0 a_1_3 + 1.0 a_2_3 + 0.0 a_3_3 - b_3 + 2.0 z_12_13 <= 1.5
1.0 a_0_3 + 0.5 a_1_3 + 0.0 a_2_3 + 1.0 a_3_3 - b_3 + 2.0 z_13_13 <= 1.5
0.0 a_0_6 + 0.0 a_1_6 + 0.0 a_2_6 + 0.0 a_3_6 - b_6 - z_0_13 >= -1
0.0 a_0_6 + 0.0 a_1_6 + 0.0 a_2_6 + 1.0 a_3_6 - b_6 - z_1_13 >= -1
0.5 a_0_6 + 0.0 a_1_6 + 0.0 a_2_6 + 0.0 a_3_6 - b_6 - z_2_13 >= -1
1.0 a_0_6 + 0.5 a_1_6 + 0.0 a_2_6 + 0.0 a_3_6 - b_6 - z_3_13 >= -1
1.0 a_0_6 + 1.0 a_1_6 + 1.0 a_2_6 + 0.0 a_3_6 - b_6 - z_4_13 >= -1
1.0 a_0_6 + 1.0 a_1_6 + 1.0 a_2_6 + 1.0 a_3_6 - b_6 - z_5_13 >= -1
0.5 a_0_6 + 1.0 a_1_6 + 1.0 a_2_6 + 1.0 a_3_6 - b_6 - z_6_13 >= -1
0.0 a_0_6 + 0.5 a_1_6 + 0.0 a_2_6 + 0.0 a_3_6 - b_6 - z_7_13 >= -1
0.0 a_0_6 + 1.0 a_1_6 + 1.0 a_2_6 + 0.0 a_3_6 - b_6 - z_8_13 >= -1
1.0 a_0_6 + 0.5 a_1_6 + 1.0 a_2_6 + 0.0 a_3_6 - b_6 - z_9_13 >= -1
0.0 a_0_6 + 0.5 a_1_6 + 1.0 a_2_6 + 1.0 a_3_6 - b_6 - z_10_13 >= -1
0.5 a_0_6 + 0.5 a_1_6 + 0.0 a_2_6 + 1.0 a_3_6 - b_6 - z_11_13 >= -1
0.5 a_0_6 + 0.0 a_1_6 + 1.0 a_2_6 + 0.0 a_3_6 - b_6 - z_12_13 >= -1
1.0 a_0_6 + 0.5 a_1_6 + 0.0 a_2_6 + 1.0 a_3_6 - b_6 - z_13_13 >= -1
0.0 a_0_1 + 0.0 a_1_1 + 0.0 a_2_1 + 0.0 a_3_1 - b_1 - z_0_13 >= -1
0.0 a_0_1 + 0.0 a_1_1 + 0.0 a_2_1 + 1.0 a_3_1 - b_1 - z_1_13 >= -1
0.5 a_0_1 + 0.0 a_1_1 + 0.0 a_2_1 + 0.0 a_3_1 - b_1 - z_2_13 >= -1
1.0 a_0_1 + 0.5 a_1_1 + 0.0 a_2_1 + 0.0 a_3_1 - b_1 - z_3_13 >= -1
1.0 a_0_1 + 1.0 a_1_1 + 1.0 a_2_1 + 0.0 a_3_1 - b_1 - z_4_13 >= -1
1.0 a_0_1 + 1.0 a_1_1 + 1.0 a_2_1 + 1.0 a_3_1 - b_1 - z_5_13 >= -1
0.5 a_0_1 + 1.0 a_1_1 + 1.0 a_2_1 + 1.0 a_3_1 - b_1 - z_6_13 >= -1
0.0 a_0_1 + 0.5 a_1_1 + 0.0 a_2_1 + 0.0 a_3_1 - b_1 - z_7_13 >= -1
0.0 a_0_1 + 1.0 a_1_1 + 1.0 a_2_1 + 0.0 a_3_1 - b_1 - z_8_13 >= -1
1.0 a_0_1 + 0.5 a_1_1 + 1.0 a_2_1 + 0.0 a_3_1 - b_1 - z_9_13 >= -1
0.0 a_0_1 + 0.5 a_1_1 + 1.0 a_2_1 + 1.0 a_3_1 - b_1 - z_10_13 >= -1
0.5 a_0_1 + 0.5 a_1_1 + 0.0 a_2_1 + 1.0 a_3_1 - b_1 - z_11_13 >= -1
0.5 a_0_1 + 0.0 a_1_1 + 1.0 a_2_1 + 0.0 a_3_1 - b_1 - z_12_13 >= -1
1.0 a_0_1 + 0.5 a_1_1 + 0.0 a_2_1 + 1.0 a_3_1 - b_1 - z_13_13 >= -1
0.0 a_0_7 + 0.0 a_1_7 + 0.0 a_2_7 + 0.0 a_3_7 - b_7 + 2.0 z_0_14 <= 1.5
0.0 a_0_7 + 0.0 a_1_7 + 0.0 a_2_7 + 1.0 a_3_7 - b_7 + 2.0 z_1_14 <= 1.5
0.5 a_0_7 + 0.0 a_1_7 + 0.0 a_2_7 + 0.0 a_3_7 - b_7 + 2.0 z_2_14 <= 1.5
1.0 a_0_7 + 0.5 a_1_7 + 0.0 a_2_7 + 0.0 a_3_7 - b_7 + 2.0 z_3_14 <= 1.5
1.0 a_0_7 + 1.0 a_1_7 + 1.0 a_2_7 + 0.0 a_3_7 - b_7 + 2.0 z_4_14 <= 1.5
1.0 a_0_7 + 1.0 a_1_7 + 1.0 a_2_7 + 1.0 a_3_7 - b_7 + 2.0 z_5_14 <= 1.5
0.5 a_0_7 + 1.0 a_1_7 + 1.0 a_2_7 + 1.0 a_3_7 - b_7 + 2.0 z_6_14 <= 1.5
0.0 a_0_7 + 0.5 a_1_7 + 0.0 a_2_7 + 0.0 a_3_7 - b_7 + 2.0 z_7_14 <= 1.5
0.0 a_0_7 + 1.0 a_1_7 + 1.0 a_2_7 + 0.0 a_3_7 - b_7 + 2.0 z_8_14 <= 1.5
1.0 a_0_7 + 0.5 a_1_7 + 1.0 a_2_7 + 0.0 a_3_7 - b_7 + 2.0 z_9_14 <= 1.5
0.0 a_0_7 + 0.5 a_1_7 + 1.0 a_2_7 + 1.0 a_3_7 - b_7 + 2.0 z_10_14 <= 1.5
0.5 a_0_7 + 0.5 a_1_7 + 0.0 a_2_7 + 1.0 a_3_7 - b_7 + 2.0 z_11_14 <= 1.5
0.5 a_0_7 + 0.0 a_1_7 + 1.0 a_2_7 + 0.0 a_3_7 - b_7 + 2.0 z_12_14 <= 1.5
1.0 a_0_7 + 0.5 a_1_7 + 0.0 a_2_7 + 1.0 a_3_7 - b_7 + 2.0 z_13_14 <= 1.5
0.0 a_0_3 + 0.0 a_1_3 + 0.0 a_2_3 + 0.0 a_3_3 - b_3 - z_0_14 >= -1
0.0 a_0_3 + 0.0 a_1_3 + 0.0 a_2_3 + 1.0 a_3_3 - b_3 - z_1_14 >= -1
0.5 a_0_3 + 0.0 a_1_3 + 0.0 a_2_3 + 0.0 a_3_3 - b_3 - z_2_14 >= -1
1.0 a_0_3 + 0.5 a_1_3 + 0.0 a_2_3 + 0.0 a_3_3 - b_3 - z_3_14 >= -1
1.0 a_0_3 + 1.0 a_1_3 + 1.0 a_2_3 + 0.0 a_3_3 - b_3 - z_4_14 >= -1
1.0 a_0_3 + 1.0 a_1_3 + 1.0 a_2_3 + 1.0 a_3_3 - b_3 - z_5_14 >= -1
0.5 a_0_3 + 1.0 a_1_3 + 1.0 a_2_3 + 1.0 a_3_3 - b_3 - z_6_14 >= -1
0.0 a_0_3 + 0.5 a_1_3 + 0.0 a_2_3 + 0.0 a_3_3 - b_3 - z_7_14 >= -1
0.0 a_0_3 + 1.0 a_1_3 + 1.0 a_2_3 + 0.0 a_3_3 - b_3 - z_8_14 >= -1
1.0 a_0_3 + 0.5 a_1_3 + 1.0 a_2_3 + 0.0 a_3_3 - b_3 - z_9_14 >= -1
0.0 a_0_3 + 0.5 a_1_3 + 1.0 a_2_3 + 1.0 a_3_3 - b_3 - z_10_14 >= -1
0.5 a_0_3 + 0.5 a_1_3 + 0.0 a_2_3 + 1.0 a_3_3 - b_3 - z_11_14 >= -1
0.5 a_0_3 + 0.0 a_1_3 + 1.0 a_2_3 + 0.0 a_3_3 - b_3 - z_12_14 >= -1
1.0 a_0_3 + 0.5 a_1_3 + 0.0 a_2_3 + 1.0 a_3_3 - b_3 - z_13_14 >= -1
0.0 a_0_1 + 0.0 a_1_1 + 0.0 a_2_1 + 0.0 a_3_1 - b_1 - z_0_14 >= -1
0.0 a_0_1 + 0.0 a_1_1 + 0.0 a_2_1 + 1.0 a_3_1 - b_1 - z_1_14 >= -1
0.5 a_0_1 + 0.0 a_1_1 + 0.0 a_2_1 + 0.0 a_3_1 - b_1 - z_2_14 >= -1
1.0 a_0_1 + 0.5 a_1_1 + 0.0 a_2_1 + 0.0 a_3_1 - b_1 - z_3_14 >= -1
1.0 a_0_1 + 1.0 a_1_1 + 1.0 a_2_1 + 0.0 a_3_1 - b_1 - z_4_14 >= -1
1.0 a_0_1 + 1.0 a_1_1 + 1.0 a_2_1 + 1.0 a_3_1 - b_1 - z_5_14 >= -1
0.5 a_0_1 + 1.0 a_1_1 + 1.0 a_2_1 + 1.0 a_3_1 - b_1 - z_6_14 >= -1
0.0 a_0_1 + 0.5 a_1_1 + 0.0 a_2_1 + 0.0 a_3_1 - b_1 - z_7_14 >= -1
0.0 a_0_1 + 1.0 a_1_1 + 1.0 a_2_1 + 0.0 a_3_1 - b_1 - z_8_14 >= -1
1.0 a_0_1 + 0.5 a_1_1 + 1.0 a_2_1 + 0.0 a_3_1 - b_1 - z_9_14 >= -1
0.0 a_0_1 + 0.5 a_1_1 + 1.0 a_2_1 + 1.0 a_3_1 - b_1 - z_10_14 >= -1
0.5 a_0_1 + 0.5 a_1_1 + 0.0 a_2_1 + 1.0 a_3_1 - b_1 - z_11_14 >= -1
0.5 a_0_1 + 0.0 a_1_1 + 1.0 a_2_1 + 0.0 a_3_1 - b_1 - z_12_14 >= -1
1.0 a_0_1 + 0.5 a_1_1 + 0.0 a_2_1 + 1.0 a_3_1 - b_1 - z_13_14 >= -1
0.0 a_0_7 + 0.0 a_1_7 + 0.0 a_2_7 + 0.0 a_3_7 - b_7 - z_0_15 >= -1
0.0 a_0_7 + 0.0 a_1_7 + 0.0 a_2_7 + 1.0 a_3_7 - b_7 - z_1_15 >= -1
0.5 a_0_7 + 0.0 a_1_7 + 0.0 a_2_7 + 0.0 a_3_7 - b_7 - z_2_15 >= -1
1.0 a_0_7 + 0.5 a_1_7 + 0.0 a_2_7 + 0.0 a_3_7 - b_7 - z_3_15 >= -1
1.0 a_0_7 + 1.0 a_1_7 + 1.0 a_2_7 + 0.0 a_3_7 - b_7 - z_4_15 >= -1
1.0 a_0_7 + 1.0 a_1_7 + 1.0 a_2_7 + 1.0 a_3_7 - b_7 - z_5_15 >= -1
0.5 a_0_7 + 1.0 a_1_7 + 1.0 a_2_7 + 1.0 a_3_7 - b_7 - z_6_15 >= -1
0.0 a_0_7 + 0.5 a_1_7 + 0.0 a_2_7 + 0.0 a_3_7 - b_7 - z_7_15 >= -1
0.0 a_0_7 + 1.0 a_1_7 + 1.0 a_2_7 + 0.0 a_3_7 - b_7 - z_8_15 >= -1
1.0 a_0_7 + 0.5 a_1_7 + 1.0 a_2_7 + 0.0 a_3_7 - b_7 - z_9_15 >= -1
0.0 a_0_7 + 0.5 a_1_7 + 1.0 a_2_7 + 1.0 a_3_7 - b_7 - z_10_15 >= -1
0.5 a_0_7 + 0.5 a_1_7 + 0.0 a_2_7 + 1.0 a_3_7 - b_7 - z_11_15 >= -1
0.5 a_0_7 + 0.0 a_1_7 + 1.0 a_2_7 + 0.0 a_3_7 - b_7 - z_12_15 >= -1
1.0 a_0_7 + 0.5 a_1_7 + 0.0 a_2_7 + 1.0 a_3_7 - b_7 - z_13_15 >= -1
0.0 a_0_3 + 0.0 a_1_3 + 0.0 a_2_3 + 0.0 a_3_3 - b_3 - z_0_15 >= -1
0.0 a_0_3 + 0.0 a_1_3 + 0.0 a_2_3 + 1.0 a_3_3 - b_3 - z_1_15 >= -1
0.5 a_0_3 + 0.0 a_1_3 + 0.0 a_2_3 + 0.0 a_3_3 - b_3 - z_2_15 >= -1
1.0 a_0_3 + 0.5 a_1_3 + 0.0 a_2_3 + 0.0 a_3_3 - b_3 - z_3_15 >= -1
1.0 a_0_3 + 1.0 a_1_3 + 1.0 a_2_3 + 0.0 a_3_3 - b_3 - z_4_15 >= -1
1.0 a_0_3 + 1.0 a_1_3 + 1.0 a_2_3 + 1.0 a_3_3 - b_3 - z_5_15 >= -1
0.5 a_0_3 + 1.0 a_1_3 + 1.0 a_2_3 + 1.0 a_3_3 - b_3 - z_6_15 >= -1
0.0 a_0_3 + 0.5 a_1_3 + 0.0 a_2_3 + 0.0 a_3_3 - b_3 - z_7_15 >= -1
0.0 a_0_3 + 1.0 a_1_3 + 1.0 a_2_3 + 0.0 a_3_3 - b_3 - z_8_15 >= -1
1.0 a_0_3 + 0.5 a_1_3 + 1.0 a_2_3 + 0.0 a_3_3 - b_3 - z_9_15 >= -1
0.0 a_0_3 + 0.5 a_1_3 + 1.0 a_2_3 + 1.0 a_3_3 - b_3 - z_10_15 >= -1
0.5 a_0_3 + 0.5 a_1_3 + 0.0 a_2_3 + 1.0 a_3_3 - b_3 - z_11_15 >= -1
0.5 a_0_3 + 0.0 a_1_3 + 1.0 a_2_3 + 0.0 a_3_3 - b_3 - z_12_15 >= -1
1.0 a_0_3 + 0.5 a_1_3 + 0.0 a_2_3 + 1.0 a_3_3 - b_3 - z_13_15 >= -1
0.0 a_0_1 + 0.0 a_1_1 + 0.0 a_2_1 + 0.0 a_3_1 - b_1 - z_0_15 >= -1
0.0 a_0_1 + 0.0 a_1_1 + 0.0 a_2_1 + 1.0 a_3_1 - b_1 - z_1_15 >= -1
0.5 a_0_1 + 0.0 a_1_1 + 0.0 a_2_1 + 0.0 a_3_1 - b_1 - z_2_15 >= -1
1.0 a_0_1 + 0.5 a_1_1 + 0.0 a_2_1 + 0.0 a_3_1 - b_1 - z_3_15 >= -1
1.0 a_0_1 + 1.0 a_1_1 + 1.0 a_2_1 + 0.0 a_3_1 - b_1 - z_4_15 >= -1
1.0 a_0_1 + 1.0 a_1_1 + 1.0 a_2_1 + 1.0 a_3_1 - b_1 - z_5_15 >= -1
0.5 a_0_1 + 1.0 a_1_1 + 1.0 a_2_1 + 1.0 a_3_1 - b_1 - z_6_15 >= -1
0.0 a_0_1 + 0.5 a_1_1 + 0.0 a_2_1 + 0.0 a_3_1 - b_1 - z_7_15 >= -1
0.0 a_0_1 + 1.0 a_1_1 + 1.0 a_2_1 + 0.0 a_3_1 - b_1 - z_8_15 >= -1
1.0 a_0_1 + 0.5 a_1_1 + 1.0 a_2_1 + 0.0 a_3_1 - b_1 - z_9_15 >= -1
0.0 a_0_1 + 0.5 a_1_1 + 1.0 a_2_1 + 1.0 a_3_1 - b_1 - z_10_15 >= -1
0.5 a_0_1 + 0.5 a_1_1 + 0.0 a_2_1 + 1.0 a_3_1 - b_1 - z_11_15 >= -1
0.5 a_0_1 + 0.0 a_1_1 + 1.0 a_2_1 + 0.0 a_3_1 - b_1 - z_12_15 >= -1
1.0 a_0_1 + 0.5 a_1_1 + 0.0 a_2_1 + 1.0 a_3_1 - b_1 - z_13_15 >= -1
N_0_8 - 1.0 z_0_8 - 1.0 z_1_8 - 0.0 z_2_8 - 0.0 z_3_8 - 0.0 z_4_8 - 1.0 z_5_8 - 0.0 z_6_8 - 1.0 z_7_8 - 0.0 z_8_8 - 0.0 z_9_8 - 0.0 z_10_8 - 0.0 z_11_8 - 0.0 z_12_8 - 1.0 z_13_8 = 0
N_0_9 - 1.0 z_0_9 - 1.0 z_1_9 - 0.0 z_2_9 - 0.0 z_3_9 - 0.0 z_4_9 - 1.0 z_5_9 - 0.0 z_6_9 - 1.0 z_7_9 - 0.0 z_8_9 - 0.0 z_9_9 - 0.0 z_10_9 - 0.0 z_11_9 - 0.0 z_12_9 - 1.0 z_13_9 = 0
N_0_10 - 1.0 z_0_10 - 1.0 z_1_10 - 0.0 z_2_10 - 0.0 z_3_10 - 0.0 z_4_10 - 1.0 z_5_10 - 0.0 z_6_10 - 1.0 z_7_10 - 0.0 z_8_10 - 0.0 z_9_10 - 0.0 z_10_10 - 0.0 z_11_10 - 0.0 z_12_10 - 1.0 z_13_10 = 0
N_0_11 - 1.0 z_0_11 - 1.0 z_1_11 - 0.0 z_2_11 - 0.0 z_3_11 - 0.0 z_4_11 - 1.0 z_5_11 - 0.0 z_6_11 - 1.0 z_7_11 - 0.0 z_8_11 - 0.0 z_9_11 - 0.0 z_10_11 - 0.0 z_11_11 - 0.0 z_12_11 - 1.0 z_13_11 = 0
N_0_12 - 1.0 z_0_12 - 1.0 z_1_12 - 0.0 z_2_12 - 0.0 z_3_12 - 0.0 z_4_12 - 1.0 z_5_12 - 0.0 z_6_12 - 1.0 z_7_12 - 0.0 z_8_12 - 0.0 z_9_12 - 0.0 z_10_12 - 0.0 z_11_12 - 0.0 z_12_12 - 1.0 z_13_12 = 0
N_0_13 - 1.0 z_0_13 - 1.0 z_1_13 - 0.0 z_2_13 - 0.0 z_3_13 - 0.0 z_4_13 - 1.0 z_5_13 - 0.0 z_6_13 - 1.0 z_7_13 - 0.0 z_8_13 - 0.0 z_9_13 - 0.0 z_10_13 - 0.0 z_11_13 - 0.0 z_12_13 - 1.0 z_13_13 = 0
N_0_14 - 1.0 z_0_14 - 1.0 z_1_14 - 0.0 z_2_14 - 0.0 z_3_14 - 0.0 z_4_14 - 1.0 z_5_14 - 0.0 z_6_14 - 1.0 z_7_14 - 0.0 z_8_14 - 0.0 z_9_14 - 0.0 z_10_14 - 0.0 z_11_14 - 0.0 z_12_14 - 1.0 z_13_14 = 0
N_0_15 - 1.0 z_0_15 - 1.0 z_1_15 - 0.0 z_2_15 - 0.0 z_3_15 - 0.0 z_4_15 - 1.0 z_5_15 - 0.0 z_6_15 - 1.0 z_7_15 - 0.0 z_8_15 - 0.0 z_9_15 - 0.0 z_10_15 - 0.0 z_11_15 - 0.0 z_12_15 - 1.0 z_13_15 = 0
N_1_8 - 0.0 z_0_8 - 0.0 z_1_8 - 1.0 z_2_8 - 1.0 z_3_8 - 1.0 z_4_8 - 0.0 z_5_8 - 1.0 z_6_8 - 0.0 z_7_8 - 1.0 z_8_8 - 1.0 z_9_8 - 1.0 z_10_8 - 1.0 z_11_8 - 1.0 z_12_8 - 0.0 z_13_8 = 0
N_1_9 - 0.0 z_0_9 - 0.0 z_1_9 - 1.0 z_2_9 - 1.0 z_3_9 - 1.0 z_4_9 - 0.0 z_5_9 - 1.0 z_6_9 - 0.0 z_7_9 - 1.0 z_8_9 - 1.0 z_9_9 - 1.0 z_10_9 - 1.0 z_11_9 - 1.0 z_12_9 - 0.0 z_13_9 = 0
N_1_10 - 0.0 z_0_10 - 0.0 z_1_10 - 1.0 z_2_10 - 1.0 z_3_10 - 1.0 z_4_10 - 0.0 z_5_10 - 1.0 z_6_10 - 0.0 z_7_10 - 1.0 z_8_10 - 1.0 z_9_10 - 1.0 z_10_10 - 1.0 z_11_10 - 1.0 z_12_10 - 0.0 z_13_10 = 0
N_1_11 - 0.0 z_0_11 - 0.0 z_1_11 - 1.0 z_2_11 - 1.0 z_3_11 - 1.0 z_4_11 - 0.0 z_5_11 - 1.0 z_6_11 - 0.0 z_7_11 - 1.0 z_8_11 - 1.0 z_9_11 - 1.0 z_10_11 - 1.0 z_11_11 - 1.0 z_12_11 - 0.0 z_13_11 = 0
N_1_12 - 0.0 z_0_12 - 0.0 z_1_12 - 1.0 z_2_12 - 1.0 z_3_12 - 1.0 z_4_12 - 0.0 z_5_12 - 1.0 z_6_12 - 0.0 z_7_12 - 1.0 z_8_12 - 1.0 z_9_12 - 1.0 z_10_12 - 1.0 z_11_12 - 1.0 z_12_12 - 0.0 z_13_12 = 0
N_1_13 - 0.0 z_0_13 - 0.0 z_1_13 - 1.0 z_2_13 - 1.0 z_3_13 - 1.0 z_4_13 - 0.0 z_5_13 - 1.0 z_6_13 - 0.0 z_7_13 - 1.0 z_8_13 - 1.0 z_9_13 - 1.0 z_10_13 - 1.0 z_11_13 - 1.0 z_12_13 - 0.0 z_13_13 = 0
N_1_14 - 0.0 z_0_14 - 0.0 z_1_14 - 1.0 z_2_14 - 1.0 z_3_14 - 1.0 z_4_14 - 0.0 z_5_14 - 1.0 z_6_14 - 0.0 z_7_14 - 1.0 z_8_14 - 1.0 z_9_14 - 1.0 z_10_14 - 1.0 z_11_14 - 1.0 z_12_14 - 0.0 z_13_14 = 0
N_1_15 - 0.0 z_0_15 - 0.0 z_1_15 - 1.0 z_2_15 - 1.0 z_3_15 - 1.0 z_4_15 - 0.0 z_5_15 - 1.0 z_6_15 - 0.0 z_7_15 - 1.0 z_8_15 - 1.0 z_9_15 - 1.0 z_10_15 - 1.0 z_11_15 - 1.0 z_12_15 - 0.0 z_13_15 = 0
N_8 - z_0_8 - z_1_8 - z_2_8 - z_3_8 - z_4_8 - z_5_8 - z_6_8 - z_7_8 - z_8_8 - z_9_8 - z_10_8 - z_11_8 - z_12_8 - z_13_8 = 0
N_9 - z_0_9 - z_1_9 - z_2_9 - z_3_9 - z_4_9 - z_5_9 - z_6_9 - z_7_9 - z_8_9 - z_9_9 - z_10_9 - z_11_9 - z_12_9 - z_13_9 = 0
N_10 - z_0_10 - z_1_10 - z_2_10 - z_3_10 - z_4_10 - z_5_10 - z_6_10 - z_7_10 - z_8_10 - z_9_10 - z_10_10 - z_11_10 - z_12_10 - z_13_10 = 0
N_11 - z_0_11 - z_1_11 - z_2_11 - z_3_11 - z_4_11 - z_5_11 - z_6_11 - z_7_11 - z_8_11 - z_9_11 - z_10_11 - z_11_11 - z_12_11 - z_13_11 = 0
N_12 - z_0_12 - z_1_12 - z_2_12 - z_3_12 - z_4_12 - z_5_12 - z_6_12 - z_7_12 - z_8_12 - z_9_12 - z_10_12 - z_11_12 - z_12_12 - z_13_12 = 0
N_13 - z_0_13 - z_1_13 - z_2_13 - z_3_13 - z_4_13 - z_5_13 - z_6_13 - z_7_13 - z_8_13 - z_9_13 - z_10_13 - z_11_13 - z_12_13 - z_13_13 = 0
N_14 - z_0_14 - z_1_14 - z_2_14 - z_3_14 - z_4_14 - z_5_14 - z_6_14 - z_7_14 - z_8_14 - z_9_14 - z_10_14 - z_11_14 - z_12_14 - z_13_14 = 0
N_15 - z_0_15 - z_1_15 - z_2_15 - z_3_15 - z_4_15 - z_5_15 - z_6_15 - z_7_15 - z_8_15 - z_9_15 - z_10_15 - z_11_15 - z_12_15 - z_13_15 = 0
c_0_8 + c_1_8 - l_8 = 0
c_0_9 + c_1_9 - l_9 = 0
c_0_10 + c_1_10 - l_10 = 0
c_0_11 + c_1_11 - l_11 = 0
c_0_12 + c_1_12 - l_12 = 0
c_0_13 + c_1_13 - l_13 = 0
c_0_14 + c_1_14 - l_14 = 0
c_0_15 + c_1_15 - l_15 = 0
L_8 - N_8 + N_0_8 - 14 c_0_8 >= -14
L_8 - N_8 + N_0_8 - 14 c_0_8 <= 0
L_8 - N_8 + N_1_8 - 14 c_1_8 >= -14
L_8 - N_8 + N_1_8 - 14 c_1_8 <= 0
L_8 >= 0
L_9 - N_9 + N_0_9 - 14 c_0_9 >= -14
L_9 - N_9 + N_0_9 - 14 c_0_9 <= 0
L_9 - N_9 + N_1_9 - 14 c_1_9 >= -14
L_9 - N_9 + N_1_9 - 14 c_1_9 <= 0
L_9 >= 0
L_10 - N_10 + N_0_10 - 14 c_0_10 >= -14
L_10 - N_10 + N_0_10 - 14 c_0_10 <= 0
L_10 - N_10 + N_1_10 - 14 c_1_10 >= -14
L_10 - N_10 + N_1_10 - 14 c_1_10 <= 0
L_10 >= 0
L_11 - N_11 + N_0_11 - 14 c_0_11 >= -14
L_11 - N_11 + N_0_11 - 14 c_0_11 <= 0
L_11 - N_11 + N_1_11 - 14 c_1_11 >= -14
L_11 - N_11 + N_1_11 - 14 c_1_11 <= 0
L_11 >= 0
L_12 - N_12 + N_0_12 - 14 c_0_12 >= -14
L_12 - N_12 + N_0_12 - 14 c_0_12 <= 0
L_12 - N_12 + N_1_12 - 14 c_1_12 >= -14
L_12 - N_12 + N_1_12 - 14 c_1_12 <= 0
L_12 >= 0
L_13 - N_13 + N_0_13 - 14 c_0_13 >= -14
L_13 - N_13 + N_0_13 - 14 c_0_13 <= 0
L_13 - N_13 + N_1_13 - 14 c_1_13 >= -14
L_13 - N_13 + N_1_13 - 14 c_1_13 <= 0
L_13 >= 0
L_14 - N_14 + N_0_14 - 14 c_0_14 >= -14
L_14 - N_14 + N_0_14 - 14 c_0_14 <= 0
L_14 - N_14 + N_1_14 - 14 c_1_14 >= -14
L_14 - N_14 + N_1_14 - 14 c_1_14 <= 0
L_14 >= 0
L_15 - N_15 + N_0_15 - 14 c_0_15 >= -14
L_15 - N_15 + N_0_15 - 14 c_0_15 <= 0
L_15 - N_15 + N_1_15 - 14 c_1_15 >= -14
L_15 - N_15 + N_1_15 - 14 c_1_15 <= 0
L_15 >= 0

\-------------
\Variables: 
\-------------
Binaries
a_0_1 a_0_2 a_0_3 a_0_4 a_0_5 a_0_6 a_0_7 a_1_1 a_1_2 a_1_3 a_1_4 a_1_5 a_1_6 a_1_7 a_2_1 a_2_2 a_2_3 a_2_4 a_2_5 a_2_6 a_2_7 a_3_1 a_3_2 a_3_3 a_3_4 a_3_5 a_3_6 a_3_7 c_0_10 c_0_11 c_0_12 c_0_13 c_0_14 c_0_15 c_0_8 c_0_9 c_1_10 c_1_11 c_1_12 c_1_13 c_1_14 c_1_15 c_1_8 c_1_9 d_1 d_2 d_3 d_4 d_5 d_6 d_7 l_10 l_11 l_12 l_13 l_14 l_15 l_8 l_9 z_0_10 z_0_11 z_0_12 z_0_13 z_0_14 z_0_15 z_0_8 z_0_9 z_10_10 z_10_11 z_10_12 z_10_13 z_10_14 z_10_15 z_10_8 z_10_9 z_11_10 z_11_11 z_11_12 z_11_13 z_11_14 z_11_15 z_11_8 z_11_9 z_12_10 z_12_11 z_12_12 z_12_13 z_12_14 z_12_15 z_12_8 z_12_9 z_13_10 z_13_11 z_13_12 z_13_13 z_13_14 z_13_15 z_13_8 z_13_9 z_1_10 z_1_11 z_1_12 z_1_13 z_1_14 z_1_15 z_1_8 z_1_9 z_2_10 z_2_11 z_2_12 z_2_13 z_2_14 z_2_15 z_2_8 z_2_9 z_3_10 z_3_11 z_3_12 z_3_13 z_3_14 z_3_15 z_3_8 z_3_9 z_4_10 z_4_11 z_4_12 z_4_13 z_4_14 z_4_15 z_4_8 z_4_9 z_5_10 z_5_11 z_5_12 z_5_13 z_5_14 z_5_15 z_5_8 z_5_9 z_6_10 z_6_11 z_6_12 z_6_13 z_6_14 z_6_15 z_6_8 z_6_9 z_7_10 z_7_11 z_7_12 z_7_13 z_7_14 z_7_15 z_7_8 z_7_9 z_8_10 z_8_11 z_8_12 z_8_13 z_8_14 z_8_15 z_8_8 z_8_9 z_9_10 z_9_11 z_9_12 z_9_13 z_9_14 z_9_15 z_9_8 z_9_9
Generals
L_10 L_11 L_12 L_13 L_14 L_15 L_8 L_9 N_0_10 N_0_11 N_0_12 N_0_13 N_0_14 N_0_15 N_0_8 N_0_9 N_10 N_11 N_12 N_13 N_14 N_15 N_1_10 N_1_11 N_1_12 N_1_13 N_1_14 N_1_15 N_1_8 N_1_9 N_8 N_9
End
