experiments/forecast.sol
# Objective value = 6.3222222222222211e+00
L_2 3
L_3 1
d_1 1
a_0_1 0
a_1_1 0
a_2_1 1
a_3_1 0
b_1 1
z_0_2 1
l_2 1
z_1_2 1
z_2_2 1
z_3_2 1
z_4_2 0
z_5_2 0
z_6_2 0
z_7_2 1
z_8_2 0
z_9_2 0
z_10_2 0
z_11_2 1
z_12_2 0
z_13_2 1
z_0_3 0
l_3 1
z_1_3 0
z_2_3 0
z_3_3 0
z_4_3 1
z_5_3 1
z_6_3 1
z_7_3 0
z_8_3 1
z_9_3 1
z_10_3 1
z_11_3 0
z_12_3 1
z_13_3 0
N_0_2 4
N_0_3 1
N_1_2 3
N_1_3 6
N_2 7
N_3 7
c_0_2 1
c_1_2 0
c_0_3 0
c_1_3 1
